unknown
(model
; cardinality of BoundSet is 14
(declare-sort BoundSet 0)
; rep: @uc_BoundSet_0
; rep: @uc_BoundSet_1
; rep: @uc_BoundSet_2
; rep: @uc_BoundSet_3
; rep: @uc_BoundSet_4
; rep: @uc_BoundSet_5
; rep: @uc_BoundSet_6
; rep: @uc_BoundSet_7
; rep: @uc_BoundSet_8
; rep: @uc_BoundSet_9
; rep: @uc_BoundSet_10
; rep: @uc_BoundSet_11
; rep: @uc_BoundSet_12
; rep: @uc_BoundSet_13
; cardinality of UnboundSet is 1
(declare-sort UnboundSet 0)
(declare-fun groundTerm_15 () UnboundSet)
(define-fun WalkedUnder ((BOUND_VARIABLE_761 BoundSet) (BOUND_VARIABLE_762 BoundSet)) Bool true)
(define-fun HasOpenUmbrella ((BOUND_VARIABLE_765 BoundSet)) Bool true)
(define-fun Indoors ((BOUND_VARIABLE_765 BoundSet)) Bool true)
(define-fun SpilledSalt ((BOUND_VARIABLE_761 BoundSet) (BOUND_VARIABLE_762 BoundSet)) Bool true)
(define-fun InFrontOfBlackCat ((BOUND_VARIABLE_761 BoundSet) (BOUND_VARIABLE_762 BoundSet)) Bool true)
(define-fun ForgotToKnock ((BOUND_VARIABLE_761 BoundSet) (BOUND_VARIABLE_762 BoundSet)) Bool true)
(define-fun HasLuckyDice ((BOUND_VARIABLE_761 BoundSet) (BOUND_VARIABLE_762 BoundSet)) Bool true)
(define-fun IsBad ((BOUND_VARIABLE_765 BoundSet)) Bool true)
(define-fun Causes ((BOUND_VARIABLE_761 BoundSet) (BOUND_VARIABLE_762 BoundSet)) Bool false)
)
unsat
(error "Cannot get model unless immediately preceded by SAT/NOT_ENTAILED or UNKNOWN response.")
